SECTION Graph
Nodes 262
Edges 487
E 1 236 1
E 1 237 1
E 1 238 9
E 2 227 49
E 2 238 6
E 3 225 47
E 3 237 9
E 3 238 1
E 4 238 3
E 5 6 10
E 5 17 7
E 5 158 3
E 5 170 3
E 6 18 7
E 6 192 3
E 7 173 10
E 7 192 1
E 8 9 10
E 8 143 3
E 9 153 3
E 10 153 1
E 10 159 6
E 11 193 46
E 11 208 1
E 11 210 1
E 11 211 2
E 12 212 10
E 12 213 1
E 12 226 40
E 13 14 10
E 13 191 4
E 13 193 2
E 13 211 46
E 14 197 4
E 14 213 46
E 15 83 2
E 15 175 1
E 15 181 1
E 15 182 1
E 16 188 10
E 16 195 1
E 16 196 1
E 17 18 10
E 17 147 7
E 17 152 3
E 18 20 7
E 18 173 1
E 19 147 3
E 19 152 7
E 20 147 10
E 20 153 6
E 20 159 1
E 21 229 1
E 22 23 2
E 22 217 45
E 22 233 2
E 23 234 2
E 23 236 1
E 23 237 1
E 24 214 44
E 24 228 5
E 24 230 1
E 24 232 7
E 25 231 1
E 25 235 7
E 26 148 1
E 26 149 1
E 26 155 6
E 27 149 1
E 27 157 6
E 27 198 53
E 28 83 1
E 28 155 9
E 28 166 1
E 28 175 2
E 29 83 1
E 29 157 9
E 29 178 1
E 29 180 2
E 30 148 6
E 30 154 2
E 30 155 1
E 30 166 9
E 31 157 2
E 31 174 7
E 31 200 50
E 32 199 41
E 32 214 5
E 32 228 44
E 33 203 40
E 33 215 1
E 33 216 2
E 34 39 7
E 34 138 1
E 34 139 1
E 34 140 6
E 35 140 5
E 35 141 1
E 35 142 1
E 35 145 6
E 36 138 6
E 36 140 1
E 36 141 5
E 37 139 6
E 37 140 1
E 37 142 5
E 38 43 7
E 38 133 1
E 38 134 1
E 38 135 5
E 39 135 6
E 39 136 1
E 39 137 1
E 40 133 5
E 40 135 1
E 40 136 6
E 41 134 5
E 41 135 1
E 41 137 6
E 42 47 7
E 42 128 1
E 42 129 1
E 42 130 6
E 43 130 5
E 43 131 1
E 43 132 1
E 44 128 6
E 44 130 1
E 44 131 5
E 45 129 6
E 45 130 1
E 45 132 5
E 46 51 7
E 46 123 1
E 46 124 1
E 46 125 5
E 47 125 6
E 47 126 1
E 47 127 1
E 48 123 5
E 48 125 1
E 48 126 6
E 49 124 5
E 49 125 1
E 49 127 6
E 50 55 7
E 50 118 1
E 50 119 1
E 50 120 6
E 51 120 5
E 51 121 1
E 51 122 1
E 52 118 6
E 52 120 1
E 52 121 5
E 53 119 6
E 53 120 1
E 53 122 5
E 54 59 7
E 54 113 1
E 54 114 1
E 54 115 5
E 55 115 6
E 55 116 1
E 55 117 1
E 56 113 5
E 56 115 1
E 56 116 6
E 57 114 5
E 57 115 1
E 57 117 6
E 58 63 7
E 58 108 1
E 58 109 1
E 58 110 6
E 59 110 5
E 59 111 1
E 59 112 1
E 60 108 6
E 60 110 1
E 60 111 5
E 61 109 6
E 61 110 1
E 61 112 5
E 62 67 7
E 62 103 1
E 62 104 1
E 62 105 5
E 63 105 6
E 63 106 1
E 63 107 1
E 64 103 5
E 64 105 1
E 64 106 6
E 65 104 5
E 65 105 1
E 65 107 6
E 66 71 7
E 66 98 1
E 66 99 1
E 66 100 6
E 67 100 5
E 67 101 1
E 67 102 1
E 68 98 6
E 68 100 1
E 68 101 5
E 69 99 6
E 69 100 1
E 69 102 5
E 70 75 7
E 70 93 1
E 70 94 1
E 70 95 5
E 71 95 6
E 71 96 1
E 71 97 1
E 72 93 5
E 72 95 1
E 72 96 6
E 73 94 5
E 73 95 1
E 73 97 6
E 74 79 7
E 74 88 1
E 74 89 1
E 74 90 6
E 75 90 5
E 75 91 1
E 75 92 1
E 76 88 6
E 76 90 1
E 76 91 5
E 77 89 6
E 77 90 1
E 77 92 5
E 78 84 1
E 78 85 5
E 79 85 6
E 79 86 1
E 79 87 1
E 80 85 1
E 80 86 6
E 81 84 5
E 81 85 1
E 81 87 6
E 82 84 199
E 83 156 9
E 86 88 7
E 87 89 7
E 91 93 7
E 92 94 7
E 96 98 7
E 97 99 7
E 101 103 7
E 102 104 7
E 106 108 7
E 107 109 7
E 111 113 7
E 112 114 7
E 116 118 7
E 117 119 7
E 121 123 7
E 122 124 7
E 126 128 7
E 127 129 7
E 131 133 7
E 132 134 7
E 136 138 7
E 137 139 7
E 141 144 6
E 142 146 6
E 143 147 6
E 143 153 10
E 144 145 1
E 144 150 6
E 145 146 1
E 145 151 6
E 146 148 2
E 146 154 6
E 149 156 6
E 150 151 1
E 150 160 9
E 151 154 1
E 151 161 9
E 152 158 7
E 154 162 9
E 155 156 1
E 156 157 1
E 158 163 3
E 159 173 7
E 160 161 1
E 160 163 2
E 161 162 1
E 161 164 2
E 162 166 2
E 162 167 2
E 163 164 1
E 163 165 1
E 164 167 1
E 164 168 1
E 165 168 1
E 165 170 2
E 166 171 2
E 167 169 1
E 167 171 2
E 168 169 1
E 168 172 2
E 169 176 2
E 169 177 2
E 170 172 1
E 170 192 10
E 171 175 1
E 171 176 1
E 172 177 1
E 174 180 2
E 174 202 50
E 175 179 1
E 176 179 1
E 176 183 2
E 177 183 2
E 178 181 1
E 178 184 2
E 179 182 1
E 179 186 2
E 180 184 1
E 180 204 50
E 181 185 1
E 181 187 2
E 182 185 1
E 182 188 2
E 183 186 1
E 183 194 10
E 184 187 1
E 184 206 50
E 185 189 2
E 185 190 2
E 186 188 1
E 186 195 10
E 187 189 1
E 187 208 50
E 188 190 1
E 189 191 2
E 189 193 4
E 190 191 2
E 190 196 10
E 191 197 10
E 192 194 4
E 194 195 1
E 196 197 2
E 198 199 1
E 198 200 5
E 199 201 5
E 200 201 1
E 200 202 7
E 201 203 7
E 201 214 41
E 202 203 1
E 202 204 2
E 203 205 2
E 204 205 1
E 204 206 1
E 205 207 1
E 205 216 40
E 206 207 1
E 206 208 1
E 207 209 1
E 207 218 40
E 208 209 1
E 209 210 1
E 210 212 2
E 210 220 40
E 211 212 1
E 211 213 10
E 212 222 40
E 214 215 7
E 215 217 2
E 215 232 44
E 216 217 1
E 216 218 1
E 217 219 1
E 218 219 1
E 218 220 2
E 219 221 2
E 219 237 47
E 220 221 1
E 220 222 2
E 221 223 2
E 222 223 1
E 222 224 5
E 223 225 5
E 224 225 1
E 224 226 5
E 225 227 5
E 226 227 1
E 228 229 1
E 229 230 5
E 230 231 2
E 230 233 7
E 231 234 7
E 232 233 1
E 233 234 2
E 234 235 1
E 235 236 2
E 1 239 100000
E 2 239 100000
E 3 239 100000
E 4 239 100000
E 5 240 100000
E 6 240 100000
E 7 240 100000
E 8 241 100000
E 9 241 100000
E 10 241 100000
E 11 242 100000
E 12 242 100000
E 13 243 100000
E 14 243 100000
E 15 244 100000
E 16 244 100000
E 17 245 100000
E 18 245 100000
E 19 246 100000
E 20 246 100000
E 21 247 100000
E 22 247 100000
E 23 247 100000
E 24 247 100000
E 25 247 100000
E 26 248 100000
E 27 248 100000
E 28 248 100000
E 29 248 100000
E 30 248 100000
E 31 248 100000
E 32 249 100000
E 33 249 100000
E 34 250 100000
E 35 250 100000
E 36 250 100000
E 37 250 100000
E 38 251 100000
E 39 251 100000
E 40 251 100000
E 41 251 100000
E 42 252 100000
E 43 252 100000
E 44 252 100000
E 45 252 100000
E 46 253 100000
E 47 253 100000
E 48 253 100000
E 49 253 100000
E 50 254 100000
E 51 254 100000
E 52 254 100000
E 53 254 100000
E 54 255 100000
E 55 255 100000
E 56 255 100000
E 57 255 100000
E 58 256 100000
E 59 256 100000
E 60 256 100000
E 61 256 100000
E 62 257 100000
E 63 257 100000
E 64 257 100000
E 65 257 100000
E 66 258 100000
E 67 258 100000
E 68 258 100000
E 69 258 100000
E 70 259 100000
E 71 259 100000
E 72 259 100000
E 73 259 100000
E 74 260 100000
E 75 260 100000
E 76 260 100000
E 77 260 100000
E 78 261 100000
E 79 261 100000
E 80 261 100000
E 81 261 100000
E 82 262 100000
E 83 248 100000
END

SECTION Terminals
Terminals 24
T 239
T 240
T 241
T 242
T 243
T 244
T 245
T 246
T 247
T 248
T 249
T 250
T 251
T 252
T 253
T 254
T 255
T 256
T 257
T 258
T 259
T 260
T 261
T 262
END

EOF
